c "881691.clq"
p edge 141 548
e 1 5
e 1 6
e 1 7
e 1 8
e 1 9
e 1 10
e 1 11
e 1 13
e 1 14
e 1 16
e 1 17
e 1 21
e 1 26
e 1 29
e 1 32
e 1 39
e 1 40
e 1 43
e 1 53
e 1 62
e 1 66
e 1 72
e 1 73
e 1 76
e 1 98
e 1 99
e 1 118
e 1 123
e 1 128
e 2 5
e 2 7
e 2 9
e 2 12
e 2 13
e 2 16
e 2 24
e 2 36
e 2 55
e 2 77
e 2 82
e 2 86
e 2 95
e 3 5
e 3 6
e 3 11
e 3 20
e 3 26
e 3 30
e 3 51
e 3 66
e 3 68
e 3 84
e 3 122
e 4 5
e 4 6
e 5 6
e 5 7
e 5 8
e 5 9
e 5 10
e 5 13
e 5 14
e 5 15
e 5 19
e 5 20
e 5 21
e 5 23
e 5 25
e 5 26
e 5 29
e 5 30
e 5 34
e 5 37
e 5 38
e 5 39
e 5 44
e 5 46
e 5 50
e 5 54
e 5 55
e 5 57
e 5 58
e 5 60
e 5 64
e 5 67
e 5 75
e 5 82
e 5 83
e 5 84
e 5 90
e 5 93
e 5 96
e 5 102
e 5 106
e 5 108
e 5 109
e 5 126
e 5 127
e 5 129
e 6 7
e 6 8
e 6 11
e 6 17
e 6 18
e 6 19
e 6 24
e 6 25
e 6 38
e 6 41
e 6 42
e 6 58
e 6 60
e 6 66
e 6 76
e 6 97
e 6 99
e 6 109
e 6 112
e 6 113
e 6 127
e 6 134
e 6 140
e 7 8
e 7 9
e 7 10
e 7 15
e 7 16
e 7 17
e 7 18
e 7 22
e 7 23
e 7 29
e 7 33
e 7 40
e 7 41
e 7 48
e 7 49
e 7 62
e 7 64
e 7 80
e 7 81
e 7 92
e 7 97
e 7 104
e 7 112
e 7 121
e 7 125
e 7 133
e 7 141
e 8 10
e 8 12
e 8 14
e 8 18
e 8 34
e 8 47
e 8 63
e 8 67
e 8 79
e 8 95
e 8 103
e 8 106
e 8 119
e 8 123
e 9 11
e 9 12
e 9 15
e 9 16
e 9 17
e 9 23
e 9 27
e 9 30
e 9 40
e 9 45
e 9 46
e 9 47
e 9 52
e 9 55
e 9 58
e 9 65
e 9 74
e 9 87
e 9 89
e 9 93
e 9 110
e 9 130
e 9 134
e 9 136
e 10 12
e 10 14
e 10 15
e 10 18
e 10 19
e 10 21
e 10 22
e 10 24
e 10 28
e 10 29
e 10 35
e 10 36
e 10 43
e 10 50
e 10 51
e 10 54
e 10 55
e 10 68
e 10 72
e 10 80
e 10 83
e 10 106
e 10 108
e 10 115
e 10 116
e 10 118
e 10 126
e 11 21
e 11 27
e 11 31
e 11 49
e 11 65
e 11 90
e 11 109
e 12 13
e 12 37
e 12 49
e 12 60
e 12 117
e 13 22
e 13 23
e 13 28
e 13 43
e 13 47
e 13 48
e 13 78
e 13 86
e 13 88
e 13 95
e 13 103
e 13 116
e 13 140
e 14 38
e 14 44
e 14 58
e 14 75
e 15 33
e 15 53
e 15 100
e 16 32
e 16 35
e 16 40
e 16 53
e 16 71
e 16 83
e 16 91
e 17 19
e 17 20
e 17 25
e 17 27
e 17 28
e 17 31
e 17 33
e 17 39
e 17 49
e 17 50
e 17 52
e 18 20
e 18 25
e 18 27
e 18 36
e 18 52
e 18 54
e 18 64
e 18 70
e 18 88
e 18 94
e 18 101
e 18 107
e 18 112
e 18 133
e 18 136
e 18 140
e 19 24
e 19 30
e 20 42
e 20 69
e 20 74
e 20 100
e 20 126
e 20 129
e 21 22
e 21 28
e 21 33
e 21 50
e 21 63
e 21 65
e 21 71
e 21 94
e 21 99
e 21 102
e 21 105
e 21 123
e 21 131
e 21 136
e 22 31
e 22 35
e 22 80
e 22 91
e 23 26
e 23 32
e 23 34
e 23 36
e 23 78
e 23 79
e 23 93
e 23 107
e 23 134
e 23 139
e 24 35
e 24 61
e 24 70
e 24 72
e 24 102
e 24 129
e 25 45
e 25 62
e 25 63
e 25 92
e 25 95
e 25 113
e 25 124
e 26 43
e 27 68
e 27 82
e 27 120
e 27 130
e 28 41
e 28 105
e 28 116
e 29 32
e 29 45
e 29 48
e 29 60
e 29 71
e 29 73
e 29 78
e 29 85
e 29 96
e 29 115
e 29 135
e 30 31
e 30 51
e 30 52
e 30 87
e 30 88
e 30 106
e 31 41
e 31 59
e 31 66
e 31 69
e 32 34
e 32 44
e 32 88
e 32 92
e 32 97
e 32 132
e 32 135
e 33 42
e 33 48
e 33 67
e 33 77
e 33 120
e 33 123
e 34 37
e 34 45
e 34 59
e 34 65
e 34 74
e 34 114
e 34 128
e 34 129
e 35 38
e 35 46
e 35 56
e 35 86
e 35 125
e 35 139
e 36 37
e 36 39
e 36 68
e 36 85
e 36 86
e 36 87
e 36 96
e 36 108
e 36 118
e 36 119
e 36 126
e 38 57
e 38 61
e 38 67
e 39 42
e 39 56
e 39 61
e 39 73
e 39 75
e 39 77
e 39 127
e 39 132
e 39 137
e 40 47
e 40 77
e 40 83
e 40 89
e 40 94
e 41 56
e 41 114
e 41 115
e 41 124
e 41 125
e 42 64
e 43 44
e 43 82
e 43 137
e 44 46
e 44 54
e 44 59
e 44 92
e 44 111
e 44 112
e 44 117
e 44 140
e 45 59
e 45 71
e 45 104
e 45 105
e 45 122
e 45 134
e 45 138
e 46 51
e 46 89
e 46 93
e 46 101
e 46 113
e 47 53
e 47 70
e 47 107
e 47 110
e 49 81
e 49 90
e 49 101
e 49 132
e 50 57
e 50 84
e 50 109
e 50 132
e 52 63
e 52 69
e 52 79
e 52 104
e 52 124
e 53 56
e 53 75
e 53 81
e 53 102
e 54 62
e 54 73
e 54 87
e 55 119
e 55 128
e 56 57
e 57 141
e 59 61
e 60 72
e 60 76
e 60 98
e 62 111
e 63 103
e 63 115
e 64 103
e 64 105
e 64 133
e 65 76
e 65 79
e 65 113
e 65 128
e 66 114
e 66 141
e 67 69
e 67 74
e 67 78
e 67 85
e 67 90
e 67 110
e 67 118
e 68 70
e 68 81
e 68 110
e 70 122
e 72 80
e 72 84
e 72 89
e 72 91
e 72 98
e 72 120
e 72 130
e 72 137
e 72 138
e 75 117
e 76 131
e 76 139
e 77 130
e 77 136
e 78 127
e 79 85
e 79 98
e 79 111
e 79 138
e 80 121
e 82 99
e 82 135
e 84 104
e 84 107
e 85 94
e 86 101
e 86 124
e 86 139
e 87 116
e 87 141
e 88 91
e 89 100
e 89 121
e 90 96
e 93 108
e 93 131
e 94 97
e 96 100
e 97 114
e 100 137
e 103 120
e 107 121
e 108 122
e 109 111
e 111 119
e 115 117
e 122 125
e 123 133
e 128 135
e 129 131
e 129 138
